c read Graph
c width = 101
c time = 60 ms
c width = 7
c time = 105 ms
c width = 6
c time = 1827 ms
c width = 6
c time = 4966 ms
s td 108 7 114
b 1 1 2 20
b 2 2 3 20 21
b 3 17 18 37 38
b 4 3 20 21 39
b 5 17 37 38 57
b 6 58 77 78 97
b 7 76 94 95 113
b 8 58 78 97 98
b 9 76 94 112 113
b 10 3 4 5 23
b 11 3 5 23 41 58 59
b 12 3 23 40 41 58 59
b 13 3 22 23 40 41 58
b 14 3 22 39 40 58
b 15 3 21 22 39 40
b 16 5 6 23 24 41 58 59
b 17 6 23 24 41 42 58 59
b 18 6 24 41 42 58 59 60
b 19 6 24 42 58 59 60 78
b 20 6 24 42 58 60 78 98
b 21 6 24 42 60 78 79 98
b 22 6 24 42 60 61 79 98
b 23 6 24 42 43 61 79 98
b 24 6 24 25 43 61 79 98
b 25 6 7 25 43 61 79 98
b 26 7 25 43 61 79 80 98
b 27 7 25 43 61 62 80 98
b 28 7 25 43 44 62 80 98
b 29 7 25 26 44 62 80 98
b 30 7 8 26 44 62 80 98
b 31 8 26 44 62 80 98 99
b 32 8 26 44 62 80 81 99
b 33 8 26 44 62 63 81 99
b 34 8 26 44 45 63 81 99
b 35 8 26 27 45 63 81 99
b 36 8 9 27 45 63 81 99
b 37 9 27 45 63 81 99 100
b 38 9 27 45 63 81 82 100
b 39 9 27 45 63 64 82 100
b 40 9 27 45 46 64 82 100
b 41 9 27 28 46 64 82 100
b 42 9 10 28 46 64 82 100
b 43 10 28 46 64 82 100 101
b 44 10 28 46 64 82 83 101
b 45 10 28 46 64 65 83 101
b 46 10 28 46 47 65 83 101
b 47 10 28 29 47 65 83 101
b 48 10 11 29 47 65 83 101
b 49 11 29 47 65 83 101 102
b 50 11 29 47 65 83 84 102
b 51 11 29 47 65 66 84 102
b 52 11 29 47 48 66 84 102
b 53 11 29 30 48 66 84 102
b 54 11 12 30 48 66 84 102
b 55 12 30 48 66 84 102 103
b 56 12 30 48 66 84 85 103
b 57 12 30 48 66 67 85 103
b 58 12 30 48 49 67 85 103
b 59 12 30 31 49 67 85 103
b 60 12 13 31 49 67 85 103
b 61 13 31 49 67 85 103 104
b 62 13 31 49 67 85 86 104
b 63 13 31 49 67 68 86 104
b 64 13 31 49 68 86 104 105
b 65 13 31 49 68 86 87 105
b 66 13 31 49 68 69 87 105
b 67 13 31 49 51 69 87 105
b 68 13 31 33 51 69 87 105
b 69 13 15 33 51 69 87 105
b 70 15 33 51 69 87 105 106
b 71 15 33 51 69 87 88 106
b 72 15 33 51 69 88 106 107
b 73 15 33 51 69 88 89 107
b 74 15 33 51 69 71 89 107
b 75 15 33 51 53 71 89 107
b 76 15 33 35 53 71 89 107
b 77 15 35 53 71 89 107 109
b 78 15 35 53 71 89 91 109
b 79 15 35 53 71 73 91 109
b 80 15 35 53 55 73 91 109
b 81 15 35 55 73 91 109 111
b 82 15 35 55 73 91 93 111
b 83 15 35 55 73 75 93 111
b 84 15 35 55 75 76 93 111
b 85 51 69 70 71 89
b 86 31 49 50 51 69
b 87 13 31 32 33 51
b 88 89 107 108 109
b 89 13 14 15 33
b 90 71 89 90 91 109
b 91 33 51 52 53 71
b 92 15 33 34 35 53
b 93 73 91 92 93 111
b 94 55 73 74 75 93
b 95 15 17 35 55 75 76
b 96 15 16 17 35
b 97 17 35 55 56 75 76
b 98 17 35 36 55 56 76
b 99 17 36 56 57 76
b 100 17 36 37 56 57
b 101 75 76 93 111 112
b 102 75 76 93 94 112
b 103 91 109 110 111
b 104 35 53 54 55 73
b 105 53 71 72 73 91
b 106 95 113 114
b 107 77 96 97
b 108 18 19 38
1 2
2 4
3 108
3 5
4 15
5 100
6 107
6 8
7 106
7 9
8 20
9 102
10 11
11 16
11 12
12 13
13 14
14 15
16 17
17 18
18 19
19 20
20 21
21 22
22 23
23 24
24 25
25 26
26 27
27 28
28 29
29 30
30 31
31 32
32 33
33 34
34 35
35 36
36 37
37 38
38 39
39 40
40 41
41 42
42 43
43 44
44 45
45 46
46 47
47 48
48 49
49 50
50 51
51 52
52 53
53 54
54 55
55 56
56 57
57 58
58 59
59 60
60 61
61 62
62 63
63 64
64 65
65 66
66 67
67 86
67 68
68 87
68 69
69 89
69 70
70 71
71 72
72 73
73 74
74 85
74 75
75 91
75 76
76 92
76 77
77 88
77 78
78 90
78 79
79 105
79 80
80 104
80 81
81 103
81 82
82 93
82 83
83 94
83 84
84 101
84 95
95 96
95 97
97 98
98 99
99 100
101 102
